c array.sh: path:     /data/qbf/qbf20/PCNF/incrementer-enc02-uniform-depth-58.qdimacs
c array.sh: name:     incrementer-enc02-uniform-depth-58
c array.sh: task:     69
c array.sh: host:     c3n01
c array.sh: uname:    Linux c3n01 4.15.0-135-generic #139-Ubuntu SMP Mon Jan 18 17:38:24 UTC 2021 x86_64 x86_64 x86_64 GNU/Linux
c array.sh: start:    Tue Feb 16 22:44:58 CET 2021
c array.sh: noturbo:  1
c array.sh: governor: 32 performance
c array.sh: tmp:      1%
c array.sh: unzipped: /tmp/local-unzipped-18834727-69-incrementer-enc02-uniform-depth-58.cnf
using tmp directory:
  /tmp
running QBF solver...

/home/seidl/cert_tests/bin/ferp-models/ijtihad/ijtihad --dependencies=0 --wit_per_call=-1 --cex_per_call=-1 --log_phi=/tmp/ferpcert3543expanded.cnf /tmp/local-unzipped-18834727-69-incrementer-enc02-uniform-depth-58.cnf
c Options after parsing: 
c cex_per_call = 18446744073709551615
c wit_per_call = 18446744073709551615
c warmup = 1
c warmup_randoms = 0
c trimming_phi = 0
c trimming_ksi = 2
c trimming_interval = 200
c memory_limit = 3000000
c MySolverv970-glucose
-1 -2 -3 -4 -5 -6 -7 -8 -9 -10 -11 -12 -13 -14 -15 -16 -17 -18 -19 -20 -21 -22 -23 -24 -25 -26 -27 -28 -29 -30 -31 -32 -33 -34 -35 -36 -37 -38 -39 -40 -41 -42 -43 -44 -45 -46 -47 -48 -49 -50 -51 -52 -53 -54 -55 -56 -57 -58 -59 -60 -61 -62 -63 -64 -65 -66 -67 -68 -69 -70 -71 -72 -73 -74 -75 -76 -77 -78 -79 -80 -81 -82 -83 -84 -85 -86 -87 -88 -89 -90 -91 -92 -93 -94 -95 -96 -97 -98 -99 -100 -101 -102 -103 -104 -105 -106 -107 -108 -109 -110 -111 -112 -113 -114 -115 -116 -117 -118 
1 2 3 4 5 6 7 8 9 10 11 12 13 14 15 16 17 18 19 20 21 22 23 24 25 26 27 28 29 30 31 32 33 34 35 36 37 38 39 40 41 42 43 44 45 46 47 48 49 50 51 52 53 54 55 56 57 58 59 60 61 62 63 64 65 66 67 68 69 70 71 72 73 74 75 76 77 78 79 80 81 82 83 84 85 86 87 88 89 90 91 92 93 94 95 96 97 98 99 100 101 102 103 104 105 106 107 108 109 110 111 112 113 114 115 116 117 118 
c Number of calls is: 0
c Layers in PHI: 0
c Layers in KSI: 0
c Running Ijtihad loop
c sat_solver_phi calld 0 times, running for 0.841866 seconds.
c number of layers in PHI is 2
c sat_solver_ksi was running for 0 seconds.
c number of layers in KSI is 0
c mysolver was running for 1.03449 seconds.
s cnf 0
solving done with exit code 20

QBF solver OK

running SAT Solver...

/tmp/ferpcert3543expanded.cnf
s UNSATISFIABLE

PROOF GENERATION OK

checking unsat proof

resolved 1 root and 1 empty clause
trace-size2: 29539515

TRACE CHECK OK

running toferp...

ferp-size: 25558366
TOFERP OK

checking FERP PROOF...

c Warning: Variable count mismatch 35223 35224
FERP CHECK OK

extracting AIG ...

aig-size: 205271
aig-header: aag 35223 34815 0 118 118
FERP CERT OK

merging  AIG into QBF ...

CERTCHECK OK

merged-cnf-header: p cnf 280752 631268
merged-cnf-size: 11712574
running SAT solver...

c ---- [ banner ] ------------------------------------------------------------
c
c KISSAT SAT Solver
c Copyright (c) 2019-2020 Armin Biere JKU Linz
c 
c Version 1.0.3 59813addcacc4d6fb880ebdd63685600475aa940
c gcc (Ubuntu 7.5.0-3ubuntu1~18.04) 7.5.0 -W -Wall -O3 -DNEMBEDDED -DNDEBUG -DNMETRICS -DNSTATISTICS
c Sun Feb 14 23:58:54 CET 2021 Linux cluster3 4.15.0-135-generic x86_64
c
c ---- [ parsing ] -----------------------------------------------------------
c
c opened and reading DIMACS file:
c 
c   /tmp/ferpcert_merged_cnf3543.cnf
c 
c parsed 'p cnf 280752 631268' header
c closing input after reading 11712574 bytes (11 MB)
c finished parsing after 0.20 seconds
c
c ---- [ solving ] -----------------------------------------------------------
c
c  seconds reductions redundant irredundant
c         MB   restarts    trail       variables
c          level  conflicts   glue          remaining
c
c *  0.20 37 0  0  0   0   0 0% 0 631266 60388 22%
c {  0.20 37 0  0  0   0   0 0% 0 631266 60388 22%
c i  0.20 37 2  0  0   1   0 0% 0 631266 60377 22%
c i  0.21 37 13  0  1   4   2 2% 1 631266 60371 22%
c -  0.34 22 656  1  1 301 299 42% 2 167124 60371 22%
c i  0.35 14 735  1  1 332 324 47% 2 167124 60330 21%
c i  0.36 14 730  1  9 551 540 48% 2 167124 59716 21%
c i  0.36 14 728  1  9 552 540 47% 2 167124 59707 21%
c i  0.36 14 721  1 14 557 544 47% 2 167124 59701 21%
c i  0.36 14 720  1 15 558 544 47% 2 167124 59695 21%
c i  0.36 14 717  1 17 560 545 47% 2 167124 59670 21%
c i  0.36 14 714  1 19 562 546 47% 2 167124 59641 21%
c i  0.36 14 624  1 33 634 615 42% 2 167124 59617 21%
c i  0.36 14 623  1 34 635 615 42% 2 167124 59611 21%
c i  0.36 14 622  1 35 636 615 42% 2 167124 59593 21%
c i  0.36 14 618  1 38 639 617 41% 2 167124 59581 21%
c i  0.37 14 593  1 51 662 636 40% 2 167124 59515 21%
c i  0.37 14 592  1 51 663 636 40% 2 167124 59506 21%
c i  0.37 14 591  1 51 664 636 40% 2 167124 59488 21%
c i  0.37 14 555  1 75 697 668 38% 2 167124 59470 21%
c
c  seconds   reductions  redundant irredundant
c         MB     restarts      trail       variables
c           level    conflicts    glue          remaining
c
c i  0.38 14 496  1 105 760 727 35% 2 167124 59464 21%
c i  0.38 14 495  1 106 761 727 35% 2 167124 59434 21%
c i  0.38 14 493  1 106 763 728 35% 2 167124 59425 21%
c i  0.42 14 402  1 153 876 837 31% 2 167124 59400 21%
c -  0.43 14 383  2 164 902 777 30% 2 163831 59400 21%
c i  0.44 14 366  2 174 930 803 29% 2 163831 59380 21%
c i  0.44 14 365  2 174 931 803 29% 2 163831 59371 21%
c i  0.44 14 364  2 174 933 803 29% 2 163831 59364 21%
c i  0.44 14 359  2 178 940 809 29% 2 163831 59350 21%
c i  0.45 14 340  2 190 972 840 28% 3 163831 59344 21%
c i  0.45 14 340  2 190 973 840 28% 3 163831 59338 21%
c i  0.45 14 337  2 191 977 843 27% 3 163831 59329 21%
c }  0.46 14 322  2 203 1001 867 26% 3 163831 59329 21%
c [  0.46 14 0  2 203 1001 867 0% 0 163831 59329 21%
c O  0.47 14 10  2 203 1002 864 16% 4 163501 59329 21%
c i  0.47 14 6  2 203 1005 866 6% 1 163501 59328 21%
c i  0.53 14 86  2 203 1602 1421 20% 4 163501 59251 21%
c i  0.53 14 89  2 203 1611 1429 20% 4 163501 59238 21%
c i  0.53 14 111  2 203 1666 1481 23% 4 163501 59225 21%
c i  0.53 14 111  2 203 1667 1481 23% 4 163501 59188 21%
c
c  seconds   reductions   redundant  irredundant
c         MB     restarts        trail       variables
c           level    conflicts      glue          remaining
c
c i  0.54 14 143  2 203 1765 1573 29% 4 163501 59068 21%
c -  0.55 14 153  3 203 1802 1485 30% 4 162682 59068 21%
c d  0.61 15 75  3 204 2501 2128 22% 3 145204 50355 18%
c d  0.62 15 75  3 204 2501 2123 22% 3 143161 49333 18%
c 3  0.64 15 75  3 204 2501 3727 22% 3 143161 49333 18%
c t  0.67 15 75  3 204 2501 3725 22% 3 137428 49123 17%
c f  0.86 18 75  3 204 2501 129923 22% 3 137337 48387 17%
c f  0.86 18 75  3 204 2501 129573 22% 3 137140 48387 17%
c u  0.91 18 75  3 204 2501 132374 22% 3 137140 48376 17%
c v  0.95 18 75  3 204 2501 133945 22% 3 137140 48334 17%
c w  1.01 18 75  3 204 2501 134915 22% 3 137103 48261 17%
c d  1.03 18 75  3 204 2501 132028 22% 3 134640 45759 16%
c d  1.05 18 75  3 204 2501 132014 22% 3 134479 45678 16%
c i  1.05 18 75  3 204 2501 132014 22% 3 134479 45678 16%
c i  1.07 18 68  3 204 2679 132186 20% 3 134479 45677 16%
c ]  1.08 18 66  3 204 2750 132253 20% 3 134479 45677 16%
c {  1.08 18 322  3 204 2750 132253 26% 3 134479 45677 16%
c i  1.09 18 302  3 224 2797 132299 25% 3 134479 45674 16%
c i  1.10 18 277  3 255 2892 132392 23% 3 134479 45665 16%
c i  1.10 18 276  3 255 2896 132395 23% 3 134479 45661 16%
c
c  seconds   reductions    redundant   irredundant
c         MB     restarts          trail       variables
c           level    conflicts        glue          remaining
c
c i  1.10 18 270  3 255 2923 132420 23% 3 134479 45648 16%
c i  1.10 18 270  3 255 2924 132420 23% 3 134479 45642 16%
c i  1.10 18 270  3 255 2925 132420 23% 3 134479 45620 16%
c -  1.12 17 254  4 256 3003 3091 22% 3 130955 45620 16%
c I  1.12 17 253  4 257 3004 3091 22% 3 130955 45620 16%
c i  1.12 17 253  4 257 3004 3091 22% 3 130955 45617 16%
c i  1.14 14 213  4 267 3197 3275 20% 3 130955 45612 16%
c i  1.15 14 168  4 295 3494 3553 18% 3 130955 45602 16%
c i  1.15 14 168  4 295 3495 3553 18% 3 130955 45598 16%
c i  1.18 14 143  4 378 3700 3754 16% 3 130955 45592 16%
c i  1.20 14 124  4 412 3917 3961 15% 3 130955 45588 16%
c i  1.21 14 119  4 443 4024 4066 14% 3 130955 45587 16%
c i  1.21 14 118  4 444 4051 4092 14% 3 130955 45579 16%
c -  1.26 14 100  5 551 4503 4011 13% 3 130772 45579 16%
c }  1.30 14 92  5 643 4750 4248 12% 3 130772 45579 16%
c [  1.30 14 66  5 643 4750 4248 20% 3 130772 45579 16%
c i  1.31 14 64  5 643 4861 4350 19% 3 130772 45556 16%
c a  1.42 14 63  5 644 6005 5338 16% 6 130521 45505 16%
c B  1.42 14 63  5 644 6006 5338 16% 6 130521 45505 16%
c i  1.42 14 62  5 644 6022 5353 16% 6 130521 45503 16%
c
c  seconds  reductions   redundant  irredundant
c         MB    restarts        trail       variables
c          level    conflicts      glue          remaining
c
c i  1.42 14 62  5 644 6023 5353 16% 6 130521 45501 16%
c i  1.42 14 62  5 644 6031 5360 16% 6 130521 45498 16%
c i  1.43 14 64  5 644 6075 5399 16% 6 130521 45475 16%
c i  1.43 14 64  5 644 6077 5399 16% 6 130521 45474 16%
c -  1.45 14 62  6 644 6304 4358 16% 6 130401 45474 16%
c ]  1.50 14 51  6 645 7001 5006 13% 6 130401 45474 16%
c {  1.50 14 92  6 645 7001 5006 12% 3 130401 45474 16%
c d  1.58 14 78  6 837 7504 5442 11% 3 130224 45363 16%
c d  1.59 14 78  6 837 7504 5432 11% 3 130003 45254 16%
c 3  1.60 14 78  6 837 7504 6999 11% 3 130003 45254 16%
c t  1.63 14 78  6 837 7504 6920 11% 3 123693 45205 16%
c f  1.82 16 78  6 837 7504 113922 11% 3 123683 44991 16%
c u  1.95 16 78  6 837 7504 113369 11% 3 123683 44991 16%
c v  1.99 16 78  6 837 7504 114388 11% 3 123683 44989 16%
c w  2.05 16 78  6 837 7504 114854 11% 3 123606 44750 16%
c d  2.07 16 78  6 837 7504 111968 11% 3 122066 42726 15%
c d  2.09 16 78  6 837 7504 111945 11% 3 121793 42584 15%
c i  2.09 16 78  6 837 7504 111945 11% 3 121793 42584 15%
c i  2.10 16 75  6 881 7612 112050 11% 3 121793 42583 15%
c i  2.11 16 73  6 891 7687 112123 11% 3 121793 42580 15%
c
c  seconds  reductions    redundant   irredundant
c         MB    restarts          trail       variables
c          level    conflicts        glue          remaining
c
c i  2.13 16 68  6 965 7894 112323 10% 3 121793 42578 15%
c i  2.13 16 67  6 972 7909 112337 10% 3 121793 42575 15%
c i  2.14 16 67  6 973 7910 112337 10% 3 121793 42570 15%
c i  2.14 16 66  6 992 7964 112384 10% 3 121793 42541 15%
c i  2.14 16 66  6 993 7973 112390 10% 3 121793 42495 15%
c i  2.14 16 66  6 993 7974 112390 10% 3 121793 42413 15%
c i  2.15 16 63  6 994 8065 112474 10% 3 121793 42404 15%
c i  2.15 16 63  6 995 8066 112474 10% 3 121793 42382 15%
c i  2.15 16 63  6 995 8067 112474 10% 3 121793 42377 15%
c i  2.15 16 62  6 1002 8106 112511 10% 3 121793 42353 15%
c i  2.15 16 62  6 1002 8109 112513 9% 3 121793 42350 15%
c i  2.15 16 62  6 1002 8112 112515 9% 3 121793 42338 15%
c i  2.15 16 61  6 1002 8179 112578 9% 3 121793 42332 15%
c i  2.16 16 60  6 1002 8287 112675 9% 3 121793 42319 15%
c i  2.16 16 60  6 1002 8292 112679 9% 3 121793 42312 15%
c i  2.16 16 59  6 1002 8326 112703 9% 3 121793 42244 15%
c i  2.16 16 59  6 1002 8331 112706 9% 3 121793 42189 15%
c i  2.16 16 59  6 1002 8333 112707 9% 3 121793 42171 15%
c i  2.16 16 59  6 1002 8351 112724 9% 3 121793 42155 15%
c i  2.16 16 59  6 1002 8360 112727 9% 3 121793 42073 15%
c
c  seconds  reductions     redundant  irredundant
c         MB     restarts         trail       variables
c          level     conflicts       glue          remaining
c
c }  2.16 16 59  6 1002 8362 112727 9% 3 121793 41730 15%
c 0  2.16 16 59  6 1002 8362 112727 9% 3 121793 41730 15%
c
c ---- [ result ] ------------------------------------------------------------
c
s UNSATISFIABLE
c
c ---- [ profiling ] ---------------------------------------------------------
c
c           1.00   46.30 %  simplify
c           0.97   45.11 %  probe
c           0.96   44.33 %  search
c           0.61   28.25 %  focused
c           0.39   17.89 %  failed
c           0.39   17.83 %  vivify
c           0.35   16.07 %  stable
c           0.20    9.36 %  parse
c           0.12    5.61 %  substitute
c           0.08    3.71 %  reduce
c           0.06    2.74 %  transitive
c           0.03    1.20 %  autarky
c           0.02    1.03 %  ternary
c =============================================
c           2.16  100.00 %  total
c
c ---- [ statistics ] --------------------------------------------------------
c
c conflicts:                             8362             3868.51 per second
c decisions:                            48770                5.83 per conflict
c propagations:                      17692066          8184875    per second
c reductions:                               6             1394    interval
c rephased:                                 3             2787    interval
c restarts:                              1002                8.35 interval
c
c ---- [ resources ] ---------------------------------------------------------
c
c maximum-resident-set-size:         39600128 bytes         38 MB
c process-time:                             2s               2.16 seconds
c
c ---- [ shutting down ] -----------------------------------------------------
c
c exit 20

SAT solver OK

VALID
c array.sh: end:      Tue Feb 16 22:47:05 CET 2021
